\ENCODING=ISO-8859-1
\Problem name: 

Maximize
 obj: x1 + x2 + x3 + x4 + x5 + x6 + x7 + x8 + x9 + x10 + x11 + x12 + x13 + x14
      + x15 + x16 + x17 + x18 + x19 + x20 + x21 + x22 + x23 + x24 + x25 + x26
      + x27 + x28 + x29 + x30 + x31 + x32 + x33 + x34 + x35 + x36 + x37 + x38
      + x39 + x40 + x41 + x42 + x43 + x44 + x45 + x46 + x47 + x48 + x49 + x50
      + x51 + x52 + x53 + x54 + x55 + x56 + x57 + x58 + x59 + x60 + x61 + x62
      + x63 + x64 + x65 + x66 + x67 + x68 + x69 + x70 + x71 + x72 + x73 + x74
      + x75 + x76 + x77 + x78 + x79 + x80 + x81 + x82 + x83 + x84 + x85 + x86
      + x87 + x88 + x89 + x90 + x91 + x92 + x93 + x94 + x95 + x96 + x97 + x98
      + x99 + x100 + x101 + x102 + x103 + x104 + x105 + x106 + x107 + x108
      + x109 + x110 + x111 + x112 + x113 + x114 + x115 + x116 + x117 + x118
      + x119 + x120 + x121 + x122 + x123 + x124 + x125 + x126 + x127 + x128
      + x129 + x130 + x131 + x132 + x133 + x134 + x135 + x136 + x137 + x138
      + x139 + x140 + x141 + x142 + x143 + x144 + x145 + x146 + x147 + x148
      + x149 + x150 + x151 + x152 + x153 + x154 + x155 + x156 + x157 + x158
      + x159 + x160 + x161 + x162 + x163 + x164 + x165 + x166 + x167 + x168
      + x169 + x170 + x171 + x172 + x173 + x174 + x175
Subject To
 clq1:   x25 + x44 + x128 <= 1
 clq2:   x107 + x139 + x162 <= 1
 clq3:   x103 + x116 + x130 <= 1
 clq4:   x10 + x124 + x170 <= 1
 clq5:   x21 + x126 + x133 <= 1
 clq6:   x56 + x89 + x108 <= 1
 clq7:   x79 + x164 <= 1
 clq8:   x17 + x135 + x165 <= 1
 clq9:   x33 + x44 + x147 <= 1
 clq10:  x38 + x86 <= 1
 clq11:  x18 + x102 + x166 <= 1
 clq12:  x10 + x29 + x124 <= 1
 clq13:  x84 + x90 + x111 <= 1
 clq14:  x110 + x138 <= 1
 clq15:  x63 + x84 + x110 <= 1
 clq16:  x90 + x111 + x155 <= 1
 clq17:  x43 + x68 + x69 <= 1
 clq18:  x5 + x84 <= 1
 clq19:  x32 + x45 + x113 <= 1
 clq20:  x48 + x67 + x89 <= 1
 clq21:  x26 + x135 <= 1
 clq22:  x16 + x66 + x104 <= 1
 clq23:  x48 + x91 + x170 <= 1
 clq24:  x29 + x41 + x58 <= 1
 clq25:  x24 + x71 + x112 <= 1
 clq26:  x1 + x89 + x156 <= 1
 clq27:  x51 + x54 <= 1
 clq28:  x52 + x153 + x169 <= 1
 clq29:  x32 + x107 + x139 <= 1
 clq30:  x24 + x95 + x105 <= 1
 clq31:  x65 + x112 + x148 <= 1
 clq32:  x125 + x148 <= 1
 clq33:  x32 + x77 <= 1
 clq34:  x4 + x142 <= 1
 clq35:  x3 + x40 <= 1
 clq36:  x23 + x46 + x165 <= 1
 clq37:  x21 + x151 + x155 <= 1
 clq38:  x86 + x93 <= 1
 clq39:  x54 + x70 + x104 <= 1
 clq40:  x83 + x127 + x149 <= 1
 clq41:  x85 + x89 + x166 <= 1
 clq42:  x8 + x32 + x93 <= 1
 clq43:  x9 + x52 + x61 <= 1
 clq44:  x34 + x111 + x165 + x171 <= 1
 clq45:  x70 + x116 + x130 <= 1
 clq46:  x17 + x158 <= 1
 clq47:  x10 + x63 + x88 <= 1
 clq48:  x25 + x139 + x147 <= 1
 clq49:  x41 + x47 + x67 + x121 <= 1
 clq50:  x134 + x141 <= 1
 clq51:  x95 + x153 <= 1
 clq52:  x50 + x70 + x77 <= 1
 clq53:  x133 + x168 <= 1
 clq54:  x36 + x81 + x127 <= 1
 clq55:  x4 + x9 + x78 <= 1
 clq56:  x68 + x69 + x130 <= 1
 clq57:  x108 + x116 + x125 + x126 <= 1
 clq58:  x55 + x65 + x120 <= 1
 clq59:  x64 + x77 <= 1
 clq60:  x87 + x157 <= 1
 clq61:  x146 + x154 <= 1
 clq62:  x54 + x56 + x94 + x111 <= 1
 clq63:  x21 + x53 + x134 <= 1
 clq64:  x11 + x52 + x82 <= 1
 clq65:  x27 + x52 + x169 <= 1
 clq66:  x17 + x94 + x135 <= 1
 clq67:  x9 + x67 + x144 <= 1
 clq68:  x27 + x60 <= 1
 clq69:  x113 + x175 <= 1
 clq70:  x20 + x44 + x112 <= 1
 clq71:  x14 + x48 + x95 <= 1
 clq72:  x81 + x138 + x172 <= 1
 clq73:  x105 + x117 <= 1
 clq74:  x5 + x99 + x128 <= 1
 clq75:  x11 + x118 + x165 <= 1
 clq76:  x59 + x103 + x167 <= 1
 clq77:  x9 + x78 + x108 <= 1
 clq78:  x38 + x173 <= 1
 clq79:  x32 + x169 <= 1
 clq80:  x79 + x165 <= 1
 clq81:  x32 + x91 + x105 <= 1
 clq82:  x131 + x168 + x170 <= 1
 clq83:  x64 + x74 + x86 <= 1
 clq84:  x20 + x72 + x88 <= 1
 clq85:  x17 + x34 + x50 <= 1
 clq86:  x89 + x123 + x150 + x166 <= 1
 clq87:  x1 + x110 <= 1
 clq88:  x42 + x51 + x175 <= 1
 clq89:  x149 + x158 <= 1
 clq90:  x44 + x68 <= 1
 clq91:  x83 + x99 <= 1
 clq92:  x40 + x112 + x133 <= 1
 clq93:  x71 + x128 <= 1
 clq94:  x18 + x19 + x90 <= 1
 clq95:  x13 + x63 + x87 <= 1
 clq96:  x63 + x88 + x140 <= 1
 clq97:  x1 + x4 + x153 <= 1
 clq98:  x18 + x98 <= 1
 clq99:  x52 + x61 + x82 <= 1
 clq100: x45 + x145 + x171 <= 1
 clq101: x46 + x152 <= 1
 clq102: x68 + x141 <= 1
 clq103: x11 + x165 + x171 <= 1
 clq104: x49 + x132 <= 1
 clq105: x24 + x27 <= 1
 clq106: x2 + x45 + x49 <= 1
 clq107: x25 + x50 + x107 <= 1
 clq108: x21 + x56 + x94 <= 1
 clq109: x8 + x83 + x149 <= 1
 clq110: x56 + x89 + x150 <= 1
 clq111: x77 + x118 + x155 <= 1
 clq112: x6 + x44 + x95 <= 1
 clq113: x8 + x137 <= 1
 clq114: x84 + x90 + x164 <= 1
 clq115: x119 + x174 <= 1
 clq116: x23 + x43 + x66 <= 1
 clq117: x59 + x122 + x135 <= 1
 clq118: x109 + x120 + x165 <= 1
 clq119: x10 + x111 + x162 <= 1
 clq120: x102 + x113 <= 1
 clq121: x17 + x165 + x166 <= 1
 clq122: x42 + x56 + x111 <= 1
 clq123: x112 + x172 <= 1
 clq124: x30 + x161 + x165 <= 1
 clq125: x43 + x66 + x84 <= 1
 clq126: x24 + x146 <= 1
 clq127: x15 + x57 <= 1
 clq128: x72 + x90 + x148 <= 1
 clq129: x63 + x84 + x111 <= 1
 clq130: x42 + x121 <= 1
 clq131: x127 + x167 + x168 <= 1
 clq132: x100 + x132 + x159 <= 1
 clq133: x74 + x142 <= 1
 clq134: x72 + x165 + x171 <= 1
 clq135: x87 + x111 + x151 <= 1
 clq136: x34 + x55 + x109 <= 1
 clq137: x83 + x124 + x144 <= 1
 clq138: x69 + x137 <= 1
 clq139: x72 + x97 + x126 <= 1
 clq140: x11 + x30 + x58 <= 1
 clq141: x68 + x94 + x163 <= 1
 clq142: x7 + x101 + x122 <= 1
 clq143: x75 + x81 + x127 <= 1
 clq144: x29 + x128 + x161 <= 1
 clq145: x11 + x89 + x162 <= 1
 clq146: x91 + x134 <= 1
 clq147: x24 + x68 <= 1
 clq148: x79 + x108 + x170 <= 1
 clq149: x75 + x114 + x122 <= 1
 clq150: x82 + x99 + x155 <= 1
 clq151: x17 + x44 <= 1
 clq152: x88 + x161 <= 1
 clq153: x28 + x34 + x165 <= 1
 clq154: x32 + x157 <= 1
 clq155: x34 + x109 + x111 + x165 <= 1
 clq156: x5 + x72 <= 1
 clq157: x98 + x142 <= 1
 clq158: x32 + x61 + x104 <= 1
 clq159: x5 + x69 + x91 <= 1
 clq160: x1 + x106 + x120 <= 1
 clq161: x67 + x173 <= 1
 clq162: x60 + x117 <= 1
 clq163: x35 + x169 <= 1
 clq164: x78 + x133 + x162 <= 1
 clq165: x75 + x174 <= 1
 clq166: x119 + x171 <= 1
 clq167: x50 + x77 + x108 <= 1
 clq168: x39 + x99 <= 1
 clq169: x19 + x80 + x135 <= 1
 clq170: x11 + x52 + x169 <= 1
 clq171: x91 + x110 <= 1
 clq172: x19 + x21 + x154 <= 1
 clq173: x12 + x71 <= 1
 clq174: x80 + x129 + x147 <= 1
 clq175: x91 + x96 + x145 <= 1
 clq176: x22 + x26 + x104 <= 1
 clq177: x58 + x83 <= 1
 clq178: x7 + x72 + x165 <= 1
 clq179: x47 + x96 + x146 <= 1
 clq180: x33 + x59 + x157 <= 1
 clq181: x80 + x125 + x135 + x137 <= 1
 clq182: x66 + x82 + x155 <= 1
 clq183: x92 + x93 + x94 <= 1
 clq184: x117 + x128 <= 1
 clq185: x102 + x104 + x168 <= 1
 clq186: x15 + x19 + x109 <= 1
 clq187: x43 + x54 <= 1
 clq188: x25 + x128 + x169 <= 1
 clq189: x76 + x79 + x117 <= 1
 clq190: x38 + x107 + x110 <= 1
 clq191: x22 + x29 + x131 <= 1
 clq192: x63 + x158 <= 1
 clq193: x8 + x25 + x147 <= 1
 clq194: x18 + x70 + x90 <= 1
 clq195: x10 + x96 + x124 <= 1
 clq196: x111 + x136 + x155 <= 1
 clq197: x3 + x13 <= 1
 clq198: x20 + x31 + x72 <= 1
 clq199: x22 + x26 + x96 <= 1
 clq200: x1 + x4 + x83 <= 1
 clq201: x43 + x116 + x122 <= 1
 clq202: x29 + x127 + x131 <= 1
 clq203: x1 + x5 + x22 <= 1
 clq204: x10 + x12 + x43 <= 1
 clq205: x50 + x63 + x169 <= 1
 clq206: x32 + x45 + x138 <= 1
 clq207: x89 + x108 + x146 <= 1
 clq208: x65 + x134 + x148 <= 1
 clq209: x14 + x122 <= 1
 clq210: x38 + x97 + x115 <= 1
 clq211: x97 + x115 + x154 <= 1
 clq212: x5 + x25 + x102 + x128 <= 1
 clq213: x16 + x53 <= 1
 clq214: x53 + x65 + x134 <= 1
 clq215: x34 + x85 + x90 + x111 <= 1
 clq216: x118 + x170 <= 1
 clq217: x13 + x42 <= 1
 clq218: x39 + x161 <= 1
 clq219: x42 + x72 <= 1
 clq220: x19 + x55 + x80 <= 1
 clq221: x84 + x163 <= 1
 clq222: x25 + x92 + x102 <= 1
 clq223: x59 + x64 + x167 + x168 <= 1
 clq224: x104 + x168 + x170 <= 1
 clq225: x39 + x158 <= 1
 clq226: x17 + x127 + x164 <= 1
 clq227: x80 + x88 <= 1
 clq228: x48 + x71 + x171 <= 1
 clq229: x62 + x63 + x89 <= 1
 clq230: x60 + x89 + x146 + x150 <= 1
 clq231: x2 + x5 <= 1
 clq232: x22 + x34 + x56 <= 1
 clq233: x1 + x23 + x173 <= 1
 clq234: x106 + x119 <= 1
 clq235: x1 + x108 + x173 <= 1
 clq236: x72 + x108 + x126 <= 1
 clq237: x74 + x122 <= 1
 clq238: x17 + x76 + x78 <= 1
 clq239: x34 + x139 + x171 <= 1
 clq240: x119 + x148 <= 1
 clq241: x29 + x93 + x161 <= 1
 clq242: x62 + x131 + x170 <= 1
 clq243: x7 + x72 + x106 <= 1
 clq244: x1 + x126 + x153 <= 1
 clq245: x26 + x51 + x144 <= 1
 clq246: x11 + x101 + x169 <= 1
 clq247: x8 + x25 + x161 <= 1
 clq248: x13 + x172 <= 1
 clq249: x108 + x114 + x135 <= 1
 clq250: x51 + x81 + x127 <= 1
 clq251: x29 + x75 + x112 <= 1
 clq252: x119 + x168 <= 1
 clq253: x26 + x120 + x128 <= 1
 clq254: x47 + x60 + x83 <= 1
 clq255: x2 + x109 <= 1
 clq256: x21 + x61 + x81 + x151 <= 1
 clq257: x14 + x54 + x95 <= 1
 clq258: x27 + x159 <= 1
 clq259: x135 + x175 <= 1
 clq260: x70 + x175 <= 1
 clq261: x69 + x103 + x130 <= 1
 clq262: x92 + x149 + x157 <= 1
 clq263: x28 + x91 + x96 <= 1
 clq264: x25 + x79 + x169 <= 1
 clq265: x64 + x123 <= 1
 clq266: x125 + x126 + x158 <= 1
 clq267: x75 + x171 <= 1
 clq268: x92 + x125 <= 1
 clq269: x46 + x91 + x153 <= 1
 clq270: x5 + x48 + x91 <= 1
 clq271: x45 + x49 + x121 <= 1
 clq272: x11 + x89 + x146 <= 1
 clq273: x26 + x41 + x140 <= 1
 clq274: x128 + x134 <= 1
 clq275: x89 + x128 <= 1
 clq276: x75 + x129 <= 1
 clq277: x118 + x149 + x160 <= 1
 clq278: x40 + x74 + x76 <= 1
 clq279: x17 + x102 + x166 <= 1
 clq280: x29 + x120 + x128 <= 1
 clq281: x25 + x128 + x151 <= 1
 clq282: x37 + x133 + x158 <= 1
 clq283: x59 + x103 + x136 <= 1
 clq284: x67 + x141 <= 1
 clq285: x3 + x48 + x170 <= 1
 clq286: x18 + x70 + x81 <= 1
 clq287: x70 + x88 + x163 <= 1
 clq288: x48 + x104 + x150 <= 1
 clq289: x13 + x92 <= 1
 clq290: x17 + x153 <= 1
 clq291: x4 + x18 + x38 <= 1
 clq292: x29 + x75 + x153 <= 1
 clq293: x33 + x158 <= 1
 clq294: x37 + x56 + x138 <= 1
 clq295: x52 + x56 + x169 <= 1
 clq296: x12 + x76 + x111 <= 1
 clq297: x61 + x81 + x138 <= 1
 clq298: x96 + x124 + x125 <= 1
 clq299: x11 + x99 + x147 <= 1
 clq300: x110 + x121 <= 1
 clq301: x114 + x162 <= 1
 clq302: x71 + x167 <= 1
 clq303: x15 + x139 <= 1
 clq304: x23 + x62 + x130 <= 1
 clq305: x16 + x133 + x162 <= 1
 clq306: x83 + x124 + x127 <= 1
 clq307: x79 + x124 + x169 <= 1
 clq308: x4 + x38 + x153 <= 1
 clq309: x131 + x138 + x172 <= 1
 clq310: x111 + x125 + x165 <= 1
 clq311: x44 + x105 + x147 + x159 <= 1
 clq312: x104 + x146 + x150 <= 1
 clq313: x18 + x108 <= 1
 clq314: x33 + x106 + x120 <= 1
 clq315: x36 + x49 + x171 <= 1
 clq316: x5 + x25 + x77 + x128 <= 1
 clq317: x6 + x155 + x167 <= 1
 clq318: x115 + x145 <= 1
 clq319: x92 + x154 <= 1
 clq320: x113 + x136 + x154 <= 1
 clq321: x7 + x40 <= 1
 clq322: x38 + x174 <= 1
 clq323: x93 + x167 <= 1
 clq324: x11 + x30 + x40 <= 1
 clq325: x14 + x46 <= 1
 clq326: x50 + x115 <= 1
 clq327: x144 + x162 <= 1
 clq328: x51 + x152 <= 1
 clq329: x100 + x139 + x167 <= 1
 clq330: x31 + x69 + x157 <= 1
 clq331: x118 + x160 + x165 <= 1
 clq332: x37 + x128 + x151 <= 1
 clq333: x85 + x90 + x131 <= 1
 clq334: x37 + x58 + x151 <= 1
 clq335: x75 + x142 <= 1
 clq336: x41 + x137 + x165 <= 1
 clq337: x55 + x112 + x122 <= 1
 clq338: x21 + x43 + x68 <= 1
 clq339: x13 + x37 + x164 <= 1
 clq340: x92 + x94 + x101 <= 1
 clq341: x46 + x126 + x165 <= 1
 clq342: x45 + x52 + x90 + x155 <= 1
 clq343: x46 + x149 <= 1
 clq344: x40 + x80 + x113 <= 1
 clq345: x4 + x159 <= 1
 clq346: x7 + x130 <= 1
 clq347: x121 + x144 + x164 <= 1
 clq348: x103 + x142 <= 1
 clq349: x8 + x149 + x161 <= 1
 clq350: x54 + x109 + x111 + x165 <= 1
 clq351: x56 + x138 + x144 <= 1
 clq352: x57 + x123 + x150 <= 1
 clq353: x73 + x75 + x132 <= 1
 clq354: x113 + x115 + x154 <= 1
 clq355: x16 + x160 <= 1
 clq356: x13 + x139 <= 1
 clq357: x73 + x90 + x146 <= 1
 clq358: x23 + x66 + x92 <= 1
 clq359: x83 + x111 + x136 <= 1
 clq360: x38 + x157 <= 1
 clq361: x33 + x58 + x131 <= 1
 clq362: x52 + x68 + x94 <= 1
 clq363: x159 + x174 <= 1
 clq364: x53 + x98 <= 1
 clq365: x45 + x80 + x90 <= 1
 clq366: x8 + x73 <= 1
 clq367: x33 + x51 + x144 <= 1
 clq368: x7 + x150 + x159 <= 1
 clq369: x147 + x154 + x162 <= 1
 clq370: x2 + x64 + x151 <= 1
 clq371: x36 + x122 + x156 <= 1
 clq372: x113 + x136 + x137 <= 1
 clq373: x35 + x117 <= 1
 clq374: x50 + x127 + x141 <= 1
 clq375: x36 + x125 <= 1
 clq376: x39 + x57 + x138 <= 1
 clq377: x69 + x92 + x157 <= 1
 clq378: x26 + x43 + x144 <= 1
 clq379: x67 + x124 + x144 <= 1
 clq380: x25 + x26 + x128 <= 1
 clq381: x37 + x45 + x138 <= 1
 clq382: x37 + x43 + x61 <= 1
 clq383: x53 + x149 <= 1
 clq384: x47 + x119 + x146 <= 1
 clq385: x21 + x72 + x126 <= 1
 clq386: x90 + x158 <= 1
 clq387: x55 + x63 + x100 <= 1
 clq388: x61 + x116 + x118 <= 1
 clq389: x37 + x61 + x138 <= 1
 clq390: x9 + x67 + x149 <= 1
 clq391: x74 + x115 + x140 <= 1
 clq392: x43 + x62 + x89 <= 1
 clq393: x17 + x21 + x155 <= 1
 clq394: x11 + x40 + x52 <= 1
 clq395: x79 + x117 + x170 <= 1
 clq396: x50 + x141 + x174 <= 1
 clq397: x59 + x64 + x101 + x136 <= 1
 clq398: x25 + x143 + x161 <= 1
 clq399: x83 + x145 <= 1
 clq400: x6 + x45 + x113 + x121 <= 1
 clq401: x96 + x102 + x166 <= 1
 clq402: x62 + x74 + x163 <= 1
 clq403: x54 + x111 + x165 + x171 <= 1
 clq404: x69 + x98 + x133 <= 1
 clq405: x62 + x135 <= 1
 clq406: x40 + x74 + x110 <= 1
 clq407: x96 + x125 + x145 <= 1
 clq408: x21 + x60 <= 1
 clq409: x95 + x105 + x136 <= 1
 clq410: x89 + x92 + x163 <= 1
 clq411: x35 + x94 <= 1
 clq412: x21 + x86 + x155 <= 1
 clq413: x5 + x25 + x143 <= 1
 clq414: x40 + x52 + x90 <= 1
 clq415: x54 + x70 + x94 <= 1
 clq416: x82 + x95 <= 1
 clq417: x5 + x37 + x128 <= 1
 clq418: x100 + x104 + x132 <= 1
 clq419: x19 + x90 + x140 <= 1
 clq420: x8 + x14 + x48 <= 1
 clq421: x37 + x128 + x164 <= 1
 clq422: x25 + x121 + x153 <= 1
 clq423: x60 + x164 <= 1
 clq424: x59 + x131 + x172 <= 1
 clq425: x36 + x49 + x173 <= 1
 clq426: x16 + x31 + x76 <= 1
 clq427: x17 + x32 <= 1
 clq428: x9 + x131 <= 1
 clq429: x114 + x141 <= 1
 clq430: x6 + x28 + x38 + x101 <= 1
 clq431: x57 + x70 <= 1
 clq432: x16 + x81 + x120 <= 1
 clq433: x125 + x135 + x137 + x165 <= 1
 clq434: x72 + x132 + x141 <= 1
 clq435: x58 + x75 + x96 <= 1
 clq436: x27 + x38 + x140 + x144 <= 1
 clq437: x6 + x43 + x116 <= 1
 clq438: x92 + x149 + x163 <= 1
 clq439: x74 + x124 + x155 <= 1
 clq440: x56 + x89 + x145 <= 1
 clq441: x34 + x68 + x94 <= 1
 clq442: x2 + x145 + x173 <= 1
 clq443: x125 + x126 + x135 + x165 <= 1
 clq444: x7 + x146 + x150 <= 1
 clq445: x61 + x73 + x78 <= 1
 clq446: x67 + x90 + x122 <= 1
 clq447: x89 + x145 + x156 <= 1
 clq448: x80 + x147 + x154 <= 1
 clq449: x31 + x76 + x95 <= 1
 clq450: x86 + x125 <= 1
 clq451: x18 + x45 + x171 <= 1
 clq452: x140 + x151 <= 1
 clq453: x17 + x69 + x130 <= 1
 clq454: x3 + x114 <= 1
 clq455: x41 + x77 + x165 <= 1
 clq456: x105 + x108 <= 1
 clq457: x132 + x143 + x154 <= 1
 clq458: x52 + x82 + x155 <= 1
 clq459: x87 + x95 <= 1
 clq460: x7 + x12 <= 1
 clq461: x70 + x106 <= 1
 clq462: x22 + x67 + x81 <= 1
 clq463: x36 + x87 <= 1
 clq464: x107 + x118 <= 1
 clq465: x11 + x30 + x165 <= 1
 clq466: x29 + x72 + x124 <= 1
 clq467: x78 + x98 + x169 <= 1
 clq468: x20 + x86 <= 1
 clq469: x1 + x117 <= 1
 clq470: x23 + x158 <= 1
 clq471: x26 + x41 + x96 <= 1
 clq472: x130 + x169 <= 1
 clq473: x51 + x154 <= 1
 clq474: x82 + x164 <= 1
 clq475: x131 + x154 + x168 <= 1
 clq476: x84 + x127 + x164 <= 1
 clq477: x21 + x68 + x151 <= 1
 clq478: x19 + x153 <= 1
 clq479: x101 + x124 + x169 <= 1
 clq480: x13 + x37 + x43 <= 1
 clq481: x31 + x139 <= 1
 clq482: x90 + x111 + x159 <= 1
 clq483: x49 + x63 + x98 <= 1
 clq484: x49 + x96 + x124 <= 1
 clq485: x16 + x104 + x127 <= 1
 clq486: x22 + x38 + x140 <= 1
 clq487: x32 + x61 + x138 <= 1
 clq488: x14 + x21 + x154 <= 1
 clq489: x71 + x87 + x118 <= 1
 clq490: x88 + x146 <= 1
 clq491: x70 + x76 + x112 <= 1
 clq492: x2 + x93 + x174 <= 1
 clq493: x25 + x40 + x128 <= 1
 clq494: x33 + x44 + x167 <= 1
 clq495: x72 + x109 + x132 <= 1
 clq496: x4 + x68 <= 1
 clq497: x75 + x115 + x148 <= 1
 clq498: x19 + x21 + x167 <= 1
 clq499: x61 + x81 + x118 <= 1
 clq500: x1 + x89 + x150 <= 1
 clq501: x2 + x59 + x88 <= 1
 clq502: x103 + x124 <= 1
 clq503: x23 + x141 <= 1
 clq504: x39 + x55 <= 1
 clq505: x76 + x109 + x111 + x112 <= 1
 clq506: x15 + x64 + x86 <= 1
 clq507: x23 + x107 <= 1
 clq508: x30 + x98 <= 1
 clq509: x14 + x40 + x157 <= 1
 clq510: x16 + x47 + x125 <= 1
 clq511: x71 + x118 + x141 <= 1
 clq512: x9 + x113 <= 1
 clq513: x54 + x78 + x111 <= 1
 clq514: x8 + x81 <= 1
 clq515: x37 + x119 <= 1
 clq516: x20 + x77 + x165 <= 1
 clq517: x18 + x129 <= 1
 clq518: x19 + x21 + x58 <= 1
 clq519: x10 + x26 + x43 <= 1
 clq520: x2 + x20 + x174 <= 1
 clq521: x129 + x163 <= 1
 clq522: x83 + x140 + x144 <= 1
 clq523: x31 + x164 <= 1
 clq524: x116 + x159 <= 1
 clq525: x58 + x143 + x151 + x152 <= 1
 clq526: x31 + x69 + x91 <= 1
 clq527: x37 + x166 <= 1
 clq528: x119 + x142 <= 1
 clq529: x50 + x71 + x141 <= 1
 clq530: x13 + x168 <= 1
 clq531: x9 + x28 + x52 <= 1
 clq532: x15 + x115 <= 1
 clq533: x43 + x116 + x126 <= 1
 clq534: x23 + x44 + x46 <= 1
 clq535: x10 + x19 <= 1
 clq536: x47 + x60 + x146 + x150 <= 1
 clq537: x52 + x61 + x94 <= 1
 clq538: x27 + x78 + x79 + x169 <= 1
 clq539: x74 + x174 <= 1
 clq540: x20 + x142 + x151 <= 1
 clq541: x11 + x58 + x151 <= 1
 clq542: x2 + x93 + x94 <= 1
 clq543: x55 + x112 + x117 <= 1
 clq544: x2 + x24 <= 1
 clq545: x42 + x99 <= 1
 clq546: x37 + x157 <= 1
 clq547: x103 + x175 <= 1
 clq548: x21 + x43 + x66 <= 1
 clq549: x51 + x81 + x144 <= 1
 clq550: x26 + x36 + x43 <= 1
 clq551: x97 + x121 + x144 <= 1
 clq552: x99 + x156 <= 1
 clq553: x82 + x93 <= 1
 clq554: x15 + x118 + x141 <= 1
 clq555: x45 + x80 + x99 <= 1
 clq556: x28 + x138 + x172 <= 1
 clq557: x129 + x131 <= 1
 clq558: x68 + x166 <= 1
 clq559: x52 + x63 + x105 <= 1
 clq560: x10 + x63 + x87 + x111 <= 1
 clq561: x120 + x145 + x159 <= 1
 clq562: x1 + x89 + x108 <= 1
 clq563: x6 + x28 + x156 <= 1
 clq564: x39 + x68 + x136 <= 1
 clq565: x17 + x127 + x168 <= 1
 clq566: x53 + x134 + x175 <= 1
 clq567: x25 + x107 + x128 + x139 <= 1
 clq568: x27 + x142 <= 1
 clq569: x28 + x139 + x167 <= 1
 clq570: x53 + x59 + x136 <= 1
 clq571: x18 + x46 + x137 <= 1
 clq572: x3 + x143 <= 1
 clq573: x87 + x135 <= 1
 clq574: x32 + x107 + x133 <= 1
 clq575: x71 + x92 <= 1
 clq576: x64 + x156 <= 1
 clq577: x10 + x44 + x148 <= 1
 clq578: x12 + x56 + x111 <= 1
 clq579: x2 + x39 <= 1
 clq580: x43 + x61 + x116 <= 1
 clq581: x47 + x120 + x121 <= 1
 clq582: x121 + x133 + x153 <= 1
 clq583: x77 + x108 + x116 <= 1
 clq584: x36 + x53 + x175 <= 1
 clq585: x15 + x76 + x109 <= 1
 clq586: x28 + x175 <= 1
 clq587: x41 + x55 + x100 <= 1
 clq588: x2 + x33 + x59 <= 1
 clq589: x111 + x112 + x151 <= 1
 clq590: x109 + x111 + x118 + x165 <= 1
 clq591: x97 + x160 <= 1
 clq592: x73 + x85 + x90 <= 1
 clq593: x76 + x78 + x163 <= 1
 clq594: x5 + x25 + x107 + x128 <= 1
 clq595: x17 + x106 + x127 <= 1
 clq596: x49 + x69 + x91 <= 1
 clq597: x28 + x123 + x139 <= 1
 clq598: x79 + x97 <= 1
 clq599: x47 + x90 + x156 <= 1
 clq600: x35 + x64 <= 1
 clq601: x25 + x153 + x169 <= 1
 clq602: x57 + x98 <= 1
 clq603: x60 + x89 + x101 <= 1
 clq604: x20 + x67 + x126 + x135 + x165 <= 1
 clq605: x99 + x142 <= 1
 clq606: x134 + x152 <= 1
 clq607: x26 + x128 + x172 <= 1
 clq608: x11 + x106 <= 1
 clq609: x41 + x67 + x165 + x171 <= 1
 clq610: x27 + x107 + x139 <= 1
 clq611: x93 + x136 <= 1
 clq612: x99 + x132 + x155 <= 1
 clq613: x43 + x83 + x144 <= 1
 clq614: x8 + x57 + x150 <= 1
 clq615: x42 + x56 + x65 <= 1
 clq616: x33 + x42 + x51 + x65 <= 1
 clq617: x67 + x81 + x138 + x144 <= 1
 clq618: x29 + x80 <= 1
 clq619: x33 + x59 + x84 <= 1
 clq620: x65 + x155 <= 1
 clq621: x2 + x59 + x122 <= 1
 clq622: x27 + x39 + x136 <= 1
 clq623: x21 + x155 + x167 <= 1
 clq624: x85 + x90 + x130 <= 1
 clq625: x91 + x102 + x105 <= 1
 clq626: x14 + x62 + x65 <= 1
 clq627: x7 + x18 + x31 <= 1
 clq628: x117 + x167 <= 1
 clq629: x32 + x66 + x84 + x104 <= 1
 clq630: x40 + x100 <= 1
 clq631: x109 + x129 <= 1
 clq632: x74 + x165 <= 1
 clq633: x73 + x105 <= 1
 clq634: x20 + x44 + x123 <= 1
 clq635: x152 + x156 <= 1
 clq636: x42 + x56 + x89 <= 1
 clq637: x103 + x165 <= 1
 clq638: x24 + x70 + x112 <= 1
 clq639: x105 + x136 + x150 <= 1
 clq640: x48 + x115 <= 1
 clq641: x12 + x73 <= 1
 clq642: x31 + x138 + x172 <= 1
 clq643: x17 + x50 + x127 <= 1
 clq644: x8 + x34 <= 1
 clq645: x36 + x76 + x171 <= 1
 clq646: x31 + x41 <= 1
 clq647: x80 + x96 + x125 <= 1
 clq648: x130 + x149 <= 1
 clq649: x6 + x94 + x101 <= 1
 clq650: x59 + x136 + x157 <= 1
 clq651: x28 + x126 + x165 <= 1
 clq652: x2 + x45 + x59 <= 1
 clq653: x59 + x131 + x168 <= 1
 clq654: x10 + x52 + x63 + x169 <= 1
 clq655: x20 + x112 + x151 <= 1
 clq656: x51 + x117 <= 1
 clq657: x134 + x137 <= 1
 clq658: x28 + x96 + x124 <= 1
 clq659: x5 + x8 + x48 <= 1
 clq660: x40 + x52 + x105 + x127 <= 1
 clq661: x100 + x139 + x162 <= 1
 clq662: x50 + x63 + x84 <= 1
 clq663: x8 + x116 <= 1
 clq664: x6 + x129 + x141 <= 1
 clq665: x28 + x40 + x52 <= 1
 clq666: x74 + x146 + x150 <= 1
 clq667: x7 + x101 + x102 <= 1
 clq668: x1 + x106 + x154 <= 1
 clq669: x119 + x137 + x146 <= 1
 clq670: x24 + x32 + x84 <= 1
 clq671: x36 + x43 + x62 <= 1
 clq672: x20 + x35 <= 1
 clq673: x95 + x160 <= 1
 clq674: x3 + x77 <= 1
 clq675: x138 + x146 <= 1
 clq676: x13 + x174 <= 1
 clq677: x79 + x80 + x147 <= 1
 clq678: x34 + x85 + x143 <= 1
 clq679: x32 + x91 + x145 <= 1
 clq680: x13 + x14 + x161 <= 1
 clq681: x6 + x48 + x129 <= 1
 clq682: x67 + x122 + x149 <= 1
 clq683: x108 + x114 + x160 <= 1
 clq684: x54 + x56 + x138 <= 1
 clq685: x72 + x109 + x142 <= 1
 clq686: x114 + x158 <= 1
 clq687: x130 + x134 <= 1
 clq688: x64 + x102 + x167 + x168 <= 1
 clq689: x47 + x114 + x121 <= 1
 clq690: x112 + x117 + x170 <= 1
 clq691: x107 + x133 + x175 <= 1
 clq692: x29 + x118 <= 1
 clq693: x26 + x140 + x144 <= 1
 clq694: x27 + x106 <= 1
 clq695: x80 + x149 <= 1
 clq696: x23 + x165 + x171 <= 1
 clq697: x15 + x109 + x118 <= 1
 clq698: x63 + x140 + x144 <= 1
 clq699: x1 + x31 + x172 <= 1
 clq700: x120 + x149 <= 1
 clq701: x28 + x147 + x154 <= 1
 clq702: x50 + x172 <= 1
 clq703: x64 + x149 <= 1
 clq704: x40 + x80 + x90 <= 1
 clq705: x12 + x22 + x56 <= 1
 clq706: x23 + x42 + x44 <= 1
 clq707: x24 + x85 <= 1
 clq708: x89 + x140 + x150 <= 1
 clq709: x48 + x124 + x129 <= 1
 clq710: x47 + x146 + x175 <= 1
 clq711: x16 + x47 + x90 <= 1
 clq712: x63 + x111 + x112 <= 1
 clq713: x103 + x143 <= 1
 clq714: x18 + x70 + x171 <= 1
 clq715: x124 + x125 + x144 <= 1
 clq716: x35 + x62 <= 1
 clq717: x21 + x105 + x151 <= 1
 clq718: x40 + x42 + x105 <= 1
 clq719: x54 + x155 + x167 <= 1
 clq720: x36 + x57 <= 1
 clq721: x29 + x64 + x102 <= 1
 clq722: x61 + x97 <= 1
 clq723: x115 + x130 + x154 <= 1
 clq724: x55 + x109 + x112 <= 1
 clq725: x69 + x91 + x161 <= 1
 clq726: x33 + x98 + x140 <= 1
 clq727: x62 + x74 + x86 <= 1
 clq728: x23 + x70 + x112 <= 1
 clq729: x20 + x72 + x90 <= 1
 clq730: x140 + x168 <= 1
 clq731: x47 + x49 + x54 + x121 <= 1
 clq732: x3 + x130 <= 1
 clq733: x56 + x168 <= 1
 clq734: x47 + x120 + x128 <= 1
 clq735: x118 + x150 <= 1
 clq736: x33 + x60 + x156 <= 1
 clq737: x4 + x15 + x78 <= 1
 clq738: x1 + x5 + x102 <= 1
 clq739: x27 + x67 + x144 <= 1
 clq740: x4 + x25 + x153 <= 1
 clq741: x110 + x143 + x160 <= 1
 clq742: x25 + x49 + x121 <= 1
 clq743: x16 + x104 + x153 <= 1
 clq744: x50 + x63 + x77 <= 1
 clq745: x16 + x166 <= 1
 clq746: x49 + x85 <= 1
 clq747: x55 + x63 + x112 <= 1
 clq748: x57 + x135 <= 1
 clq749: x113 + x119 + x137 <= 1
 clq750: x34 + x47 + x62 + x121 <= 1
 clq751: x86 + x169 <= 1
 clq752: x8 + x48 + x124 <= 1
 clq753: x11 + x30 + x89 <= 1
 clq754: x37 + x159 + x170 <= 1
 clq755: x34 + x56 + x94 + x139 <= 1
 clq756: x19 + x35 + x109 <= 1
 clq757: x31 + x76 + x78 + x111 <= 1
 clq758: x60 + x87 <= 1
 clq759: x70 + x90 + x130 <= 1
 clq760: x47 + x57 + x121 <= 1
 clq761: x49 + x71 + x98 <= 1
 clq762: x34 + x50 + x174 <= 1
 clq763: x33 + x65 + x120 <= 1
 clq764: x45 + x106 <= 1
 clq765: x63 + x93 + x98 <= 1
 clq766: x67 + x121 + x144 <= 1
 clq767: x74 + x153 <= 1
 clq768: x75 + x100 + x132 <= 1
 clq769: x26 + x36 + x53 <= 1
 clq770: x7 + x77 + x165 <= 1
 clq771: x3 + x12 + x27 <= 1
 clq772: x91 + x161 + x171 <= 1
 clq773: x33 + x42 + x44 + x140 <= 1
 clq774: x32 + x66 + x91 <= 1
 clq775: x134 + x147 <= 1
 clq776: x66 + x79 + x147 <= 1
 clq777: x30 + x36 + x173 <= 1
 clq778: x8 + x31 <= 1
 clq779: x62 + x91 + x170 <= 1
 clq780: x14 + x54 + x99 <= 1
 clq781: x10 + x26 + x172 <= 1
 clq782: x66 + x92 + x100 <= 1
 clq783: x66 + x121 <= 1
 clq784: x29 + x93 + x145 <= 1
 clq785: x9 + x28 + x84 <= 1
 clq786: x75 + x96 + x112 <= 1
 clq787: x47 + x67 + x90 <= 1
 clq788: x59 + x84 + x110 <= 1
 clq789: x54 + x149 <= 1
 clq790: x73 + x132 + x141 <= 1
 clq791: x85 + x114 + x166 <= 1
 clq792: x27 + x58 <= 1
 clq793: x29 + x157 <= 1
 clq794: x8 + x93 + x114 + x161 <= 1
 clq795: x46 + x94 <= 1
 clq796: x20 + x72 + x123 <= 1
 clq797: x22 + x38 + x123 <= 1
 clq798: x63 + x89 + x140 <= 1
 clq799: x59 + x64 + x86 <= 1
 clq800: x22 + x136 <= 1
 clq801: x42 + x129 <= 1
 clq802: x22 + x70 + x81 <= 1
 clq803: x43 + x89 + x160 <= 1
 clq804: x13 + x63 + x169 <= 1
 clq805: x68 + x79 <= 1
 clq806: x19 + x21 + x55 <= 1
 clq807: x18 + x161 + x171 <= 1
 clq808: x25 + x143 + x169 <= 1
 clq809: x3 + x66 <= 1
 clq810: x21 + x134 + x142 <= 1
 clq811: x105 + x150 + x152 <= 1
 clq812: x52 + x161 <= 1
 clq813: x71 + x159 <= 1
 clq814: x77 + x82 + x155 <= 1
 clq815: x33 + x107 <= 1
 clq816: x9 + x103 <= 1
 clq817: x75 + x126 + x133 + x153 <= 1
 clq818: x72 + x90 + x122 <= 1
 clq819: x33 + x77 <= 1
 clq820: x46 + x57 <= 1
 clq821: x69 + x120 <= 1
 clq822: x79 + x156 <= 1
 clq823: x39 + x115 <= 1
 clq824: x46 + x73 + x109 <= 1
 clq825: x7 + x31 + x101 <= 1
 clq826: x33 + x140 + x144 <= 1
 clq827: x69 + x98 + x111 <= 1
 clq828: x36 + x93 <= 1
 clq829: x45 + x150 <= 1
 clq830: x26 + x64 + x101 <= 1
 clq831: x55 + x97 + x100 <= 1
 clq832: x20 + x96 + x112 <= 1
 clq833: x76 + x95 + x163 <= 1
 clq834: x10 + x141 <= 1
 clq835: x136 + x170 <= 1
 clq836: x33 + x46 + x144 <= 1
 clq837: x62 + x91 + x145 <= 1
 clq838: x4 + x6 + x38 <= 1
 clq839: x12 + x97 + x144 <= 1
 clq840: x119 + x172 <= 1
 clq841: x85 + x89 + x108 <= 1
 clq842: x82 + x158 <= 1
 clq843: x83 + x139 <= 1
 clq844: x28 + x38 + x123 <= 1
 clq845: x50 + x70 + x126 <= 1
 clq846: x72 + x152 <= 1
 clq847: x78 + x111 + x162 <= 1
 clq848: x6 + x28 + x38 + x116 <= 1
 clq849: x72 + x97 + x136 <= 1
 clq850: x113 + x141 + x154 <= 1
 clq851: x117 + x125 <= 1
 clq852: x32 + x84 + x111 <= 1
 clq853: x35 + x114 <= 1
 clq854: x70 + x77 + x163 <= 1
 clq855: x84 + x90 + x140 <= 1
 clq856: x59 + x64 + x96 <= 1
 clq857: x82 + x107 + x175 <= 1
 clq858: x29 + x41 + x127 <= 1
 clq859: x31 + x68 + x69 <= 1
Bounds
 0 <= x1 <= 1
 0 <= x2 <= 1
 0 <= x3 <= 1
 0 <= x4 <= 1
 0 <= x5 <= 1
 0 <= x6 <= 1
 0 <= x7 <= 1
 0 <= x8 <= 1
 0 <= x9 <= 1
 0 <= x10 <= 1
 0 <= x11 <= 1
 0 <= x12 <= 1
 0 <= x13 <= 1
 0 <= x14 <= 1
 0 <= x15 <= 1
 0 <= x16 <= 1
 0 <= x17 <= 1
 0 <= x18 <= 1
 0 <= x19 <= 1
 0 <= x20 <= 1
 0 <= x21 <= 1
 0 <= x22 <= 1
 0 <= x23 <= 1
 0 <= x24 <= 1
 0 <= x25 <= 1
 0 <= x26 <= 1
 0 <= x27 <= 1
 0 <= x28 <= 1
 0 <= x29 <= 1
 0 <= x30 <= 1
 0 <= x31 <= 1
 0 <= x32 <= 1
 0 <= x33 <= 1
 0 <= x34 <= 1
 0 <= x35 <= 1
 0 <= x36 <= 1
 0 <= x37 <= 1
 0 <= x38 <= 1
 0 <= x39 <= 1
 0 <= x40 <= 1
 0 <= x41 <= 1
 0 <= x42 <= 1
 0 <= x43 <= 1
 0 <= x44 <= 1
 0 <= x45 <= 1
 0 <= x46 <= 1
 0 <= x47 <= 1
 0 <= x48 <= 1
 0 <= x49 <= 1
 0 <= x50 <= 1
 0 <= x51 <= 1
 0 <= x52 <= 1
 0 <= x53 <= 1
 0 <= x54 <= 1
 0 <= x55 <= 1
 0 <= x56 <= 1
 0 <= x57 <= 1
 0 <= x58 <= 1
 0 <= x59 <= 1
 0 <= x60 <= 1
 0 <= x61 <= 1
 0 <= x62 <= 1
 0 <= x63 <= 1
 0 <= x64 <= 1
 0 <= x65 <= 1
 0 <= x66 <= 1
 0 <= x67 <= 1
 0 <= x68 <= 1
 0 <= x69 <= 1
 0 <= x70 <= 1
 0 <= x71 <= 1
 0 <= x72 <= 1
 0 <= x73 <= 1
 0 <= x74 <= 1
 0 <= x75 <= 1
 0 <= x76 <= 1
 0 <= x77 <= 1
 0 <= x78 <= 1
 0 <= x79 <= 1
 0 <= x80 <= 1
 0 <= x81 <= 1
 0 <= x82 <= 1
 0 <= x83 <= 1
 0 <= x84 <= 1
 0 <= x85 <= 1
 0 <= x86 <= 1
 0 <= x87 <= 1
 0 <= x88 <= 1
 0 <= x89 <= 1
 0 <= x90 <= 1
 0 <= x91 <= 1
 0 <= x92 <= 1
 0 <= x93 <= 1
 0 <= x94 <= 1
 0 <= x95 <= 1
 0 <= x96 <= 1
 0 <= x97 <= 1
 0 <= x98 <= 1
 0 <= x99 <= 1
 0 <= x100 <= 1
 0 <= x101 <= 1
 0 <= x102 <= 1
 0 <= x103 <= 1
 0 <= x104 <= 1
 0 <= x105 <= 1
 0 <= x106 <= 1
 0 <= x107 <= 1
 0 <= x108 <= 1
 0 <= x109 <= 1
 0 <= x110 <= 1
 0 <= x111 <= 1
 0 <= x112 <= 1
 0 <= x113 <= 1
 0 <= x114 <= 1
 0 <= x115 <= 1
 0 <= x116 <= 1
 0 <= x117 <= 1
 0 <= x118 <= 1
 0 <= x119 <= 1
 0 <= x120 <= 1
 0 <= x121 <= 1
 0 <= x122 <= 1
 0 <= x123 <= 1
 0 <= x124 <= 1
 0 <= x125 <= 1
 0 <= x126 <= 1
 0 <= x127 <= 1
 0 <= x128 <= 1
 0 <= x129 <= 1
 0 <= x130 <= 1
 0 <= x131 <= 1
 0 <= x132 <= 1
 0 <= x133 <= 1
 0 <= x134 <= 1
 0 <= x135 <= 1
 0 <= x136 <= 1
 0 <= x137 <= 1
 0 <= x138 <= 1
 0 <= x139 <= 1
 0 <= x140 <= 1
 0 <= x141 <= 1
 0 <= x142 <= 1
 0 <= x143 <= 1
 0 <= x144 <= 1
 0 <= x145 <= 1
 0 <= x146 <= 1
 0 <= x147 <= 1
 0 <= x148 <= 1
 0 <= x149 <= 1
 0 <= x150 <= 1
 0 <= x151 <= 1
 0 <= x152 <= 1
 0 <= x153 <= 1
 0 <= x154 <= 1
 0 <= x155 <= 1
 0 <= x156 <= 1
 0 <= x157 <= 1
 0 <= x158 <= 1
 0 <= x159 <= 1
 0 <= x160 <= 1
 0 <= x161 <= 1
 0 <= x162 <= 1
 0 <= x163 <= 1
 0 <= x164 <= 1
 0 <= x165 <= 1
 0 <= x166 <= 1
 0 <= x167 <= 1
 0 <= x168 <= 1
 0 <= x169 <= 1
 0 <= x170 <= 1
 0 <= x171 <= 1
 0 <= x172 <= 1
 0 <= x173 <= 1
 0 <= x174 <= 1
 0 <= x175 <= 1
Binaries
 x1  x2  x3  x4  x5  x6  x7  x8  x9  x10  x11  x12  x13  x14  x15  x16  x17 
 x18  x19  x20  x21  x22  x23  x24  x25  x26  x27  x28  x29  x30  x31  x32 
 x33  x34  x35  x36  x37  x38  x39  x40  x41  x42  x43  x44  x45  x46  x47 
 x48  x49  x50  x51  x52  x53  x54  x55  x56  x57  x58  x59  x60  x61  x62 
 x63  x64  x65  x66  x67  x68  x69  x70  x71  x72  x73  x74  x75  x76  x77 
 x78  x79  x80  x81  x82  x83  x84  x85  x86  x87  x88  x89  x90  x91  x92 
 x93  x94  x95  x96  x97  x98  x99  x100  x101  x102  x103  x104  x105  x106 
 x107  x108  x109  x110  x111  x112  x113  x114  x115  x116  x117  x118  x119 
 x120  x121  x122  x123  x124  x125  x126  x127  x128  x129  x130  x131  x132 
 x133  x134  x135  x136  x137  x138  x139  x140  x141  x142  x143  x144  x145 
 x146  x147  x148  x149  x150  x151  x152  x153  x154  x155  x156  x157  x158 
 x159  x160  x161  x162  x163  x164  x165  x166  x167  x168  x169  x170  x171 
 x172  x173  x174  x175 
End
